1
150
81
20 15000000
21 16000000
22 9000000
23 8000000
24 7000000
25 13000000
26 17000000
27 10000000
28 14000000
29 13000000
30 5000000
31 16000000
32 15000000
33 12000000
34 12000000
35 17000000
36 7000000
37 16000000
38 11000000
39 11000000
40 20000000
41 14000000
42 12000000
43 11000000
44 9000000
45 6000000
46 13000000
47 12000000
48 10000000
49 9000000
50 11000000
51 16000000
52 12000000
53 5000000
54 9000000
55 11000000
56 16000000
57 13000000
58 10000000
59 13000000
60 13000000
61 8000000
62 15000000
63 13000000
64 14000000
65 15000000
66 10000000
67 17000000
68 11000000
69 12000000
70 15000000
71 7000000
72 11000000
73 7000000
74 15000000
75 16000000
76 17000000
77 15000000
78 12000000
79 11000000
80 12000000
81 14000000
82 21000000
83 16000000
84 11000000
85 12000000
86 12000000
87 15000000
88 9000000
89 13000000
90 9000000
91 16000000
92 17000000
93 18000000
94 12000000
95 9000000
96 8000000
97 19000000
98 11000000
99 9000000
100 7000000
